language Essence 1.3
letting nnodes be 10
letting nrings be 6
letting capacity be 5
letting demand be {{1, 7},
{1, 8},
{2, 8},
{3, 6},
{3, 7},
{3, 10},
{4, 5},
{4, 6},
{4, 7},
{5, 7},
{5, 9},
{6, 8},
{7, 9},
{7, 10},
{9, 10}}
